WARNING: for repeatability, setting FPU to use double precision
============================[ Problem Statistics ]=============================
|                                                                             |
|  Number of variables:           100                                         |
|  Number of clauses:             449                                         |
|  Parse time:                   0.00 s                                       |
|  Eliminated clauses:           0.00 Mb                                      |
|  Simplification time:          0.00 s                                       |
|                                                                             |
============================[ Search Statistics ]==============================
| Conflicts |          ORIGINAL         |          LEARNT          | Progress |
|           |    Vars  Clauses Literals |    Limit  Clauses Lit/Cl |          |
===============================================================================
|       100 |      94      443     1360 |      162      100      8 |  0.010 % |
|       250 |      94      443     1360 |      178      165      6 |  0.011 % |
===============================================================================
restarts              : 3
conflicts             : 316            (84110 /sec)
decisions             : 401            (0.00 % random) (106734 /sec)
propagations          : 7355           (1957679 /sec)
conflict literals     : 1969           (20.89 % deleted)
Memory used           : 13.00 MB
CPU time              : 0.003757 s

SATISFIABLE
